50
26775

852 892
263 982
301 647
973 255
117 229
436 554
645 246
101 773
425 984
506 366
533 856
657 529
308 548
943 514
927 994
639 518
126 334
866 98
851 901
621 521
852 121
907 766
490 556
371 147
834 944
884 542
117 521
603 868
498 235
527 603
901 395
363 351
154 166
414 619
788 150
367 212
430 702
659 845
741 547
694 899
895 573
400 664
408 549
951 956
652 743
387 563
824 368
833 131
840 277
579 622
